NAME : berlin52.tsp
COMMENT : Optimal tour for berlin52.tsp
TYPE : TOUR
DIMENSION : 52
Total Length: 8031.601055366747
TOUR_SECTION
1
22
49
32
45
19
41
8
9
10
43
33
51
11
52
14
13
27
12
28
26
47
29
30
2
7
42
17
3
18
31
21
23
20
50
16
46
25
4
6
15
5
24
48
38
37
40
39
36
35
34
44
-1
EOF
